;test regex sed -e 's@[\s]*([0-9]{1,3}.[0-9]{1,3}.[0-9]{1,3}.[0-9]{1,3})@\1@' InputFile
(declare-const X String)
(assert (str.in_re X (re.++ (str.to_re "s") (re.++ (str.to_re "e") (re.++ (str.to_re "d") (re.++ (str.to_re " ") (re.++ (str.to_re "-") (re.++ (str.to_re "e") (re.++ (str.to_re " ") (re.++ (str.to_re "\u{27}") (re.++ (str.to_re "s") (re.++ (str.to_re "@") (re.++ (re.* (re.union (str.to_re "\u{20}") (re.union (str.to_re "\u{0b}") (re.union (str.to_re "\u{0a}") (re.union (str.to_re "\u{0d}") (re.union (str.to_re "\u{09}") (str.to_re "\u{0c}"))))))) (re.++ (re.++ ((_ re.loop 1 3) (re.range "0" "9")) (re.++ (re.diff re.allchar (str.to_re "\n")) (re.++ ((_ re.loop 1 3) (re.range "0" "9")) (re.++ (re.diff re.allchar (str.to_re "\n")) (re.++ ((_ re.loop 1 3) (re.range "0" "9")) (re.++ (re.diff re.allchar (str.to_re "\n")) ((_ re.loop 1 3) (re.range "0" "9")))))))) (re.++ (str.to_re "@") (re.++ (_ re.reference 1) (re.++ (str.to_re "@") (re.++ (str.to_re "\u{27}") (re.++ (str.to_re " ") (re.++ (str.to_re "I") (re.++ (str.to_re "n") (re.++ (str.to_re "p") (re.++ (str.to_re "u") (re.++ (str.to_re "t") (re.++ (str.to_re "F") (re.++ (str.to_re "i") (re.++ (str.to_re "l") (str.to_re "e"))))))))))))))))))))))))))))
; sanitize danger characters:  < > ' " &
(assert (not (str.in_re X (re.++ re.all (re.union (str.to_re "\u{3c}") (str.to_re "\u{3e}") (str.to_re "\u{27}") (str.to_re "\u{22}") (str.to_re "\u{26}")) re.all))))
(assert (< 9 (str.len X)))
(check-sat)
(get-model)